certificates/rado_a11_c158_N30.drat
14 -28 -30 0
-28 -29 -30 0
-29 -30 0
d -28 -29 -30 0
28 -30 0
-30 0
-28 0
13 0
14 0
-10 0
-18 0
-9 0
-17 0
-29 0
16 0
1 0
15 0
-23 0
-20 0
-12 0
0
